40
1 0 5
2 0 7
2 1 2
3 2 3
4 0 1
4 2 6
5 0 3
5 1 6
5 3 6
5 4 2
6 3 4
6 4 2
6 5 2
7 1 7
7 3 2
7 5 6
7 6 6
8 0 3
8 3 6
8 5 3
8 6 1
8 7 6
9 0 5
9 2 5
9 4 2
9 5 7
9 7 1
9 8 1
10 2 2
10 3 5
10 4 6
10 5 1
10 6 3
10 8 7
10 9 1
11 1 7
11 2 7
11 4 6
11 5 3
12 2 4
12 3 1
12 6 5
12 8 3
12 10 6
12 11 5
13 1 1
13 3 3
13 4 3
13 7 1
13 8 3
13 10 7
13 12 5
14 1 2
14 2 5
14 4 4
14 6 3
14 10 6
14 11 4
14 12 2
14 13 7
15 3 5
15 4 1
15 5 3
15 9 7
15 12 1
15 13 1
16 0 5
16 2 2
16 5 6
16 6 4
16 7 7
16 9 4
16 10 4
16 11 2
17 0 5
17 2 4
17 3 3
17 7 2
17 8 7
17 10 5
17 12 5
17 14 6
17 15 3
18 0 1
18 1 3
18 2 5
18 5 2
18 6 7
18 10 4
18 12 4
18 13 3
18 15 7
18 17 7
19 1 6
19 5 7
19 6 6
19 7 3
19 8 3
19 9 5
19 11 7
19 13 3
19 15 7
19 16 4
19 18 5
20 3 3
20 6 4
20 8 1
20 9 4
20 12 3
20 14 6
20 15 5
20 18 4
21 0 2
21 2 7
21 4 2
21 5 3
21 6 5
21 8 6
21 9 7
21 12 7
21 14 4
21 15 3
21 16 2
21 17 5
22 0 1
22 4 2
22 5 2
22 6 5
22 10 2
22 11 1
22 14 3
22 17 7
22 19 2
22 20 3
22 21 7
23 0 1
23 1 1
23 3 2
23 6 5
23 9 3
23 10 7
23 15 5
23 16 6
23 17 4
23 18 6
23 19 1
23 20 7
23 21 7
24 4 6
24 7 6
24 9 3
24 10 6
24 13 5
24 14 7
24 16 3
24 19 4
25 1 5
25 2 2
25 4 1
25 5 1
25 6 3
25 9 3
25 10 4
25 11 3
25 12 6
25 13 5
25 14 7
25 17 3
25 19 7
25 21 1
25 24 6
26 0 5
26 1 6
26 2 3
26 4 3
26 5 7
26 6 7
26 10 1
26 12 1
26 13 6
26 16 1
26 23 6
27 2 5
27 3 3
27 4 6
27 6 6
27 8 2
27 10 6
27 12 6
27 13 7
27 14 6
27 16 7
27 18 6
27 22 1
27 23 2
27 25 6
27 26 2
28 0 3
28 5 5
28 7 7
28 10 1
28 12 6
28 14 1
28 15 3
28 16 3
28 17 7
28 18 1
28 19 2
28 20 6
28 22 5
28 25 7
28 27 6
29 1 1
29 2 5
29 3 4
29 6 5
29 8 7
29 9 3
29 11 5
29 13 4
29 15 6
29 16 4
29 20 7
29 23 7
30 0 5
30 3 1
30 4 2
30 7 2
30 9 5
30 10 3
30 12 4
30 14 7
30 15 1
30 16 3
30 17 7
30 20 2
30 21 5
30 23 4
30 26 4
30 27 7
30 28 4
31 0 1
31 2 6
31 3 2
31 5 5
31 6 6
31 8 4
31 10 2
31 11 6
31 12 1
31 13 4
31 15 5
31 16 5
31 17 6
31 18 3
31 19 2
31 20 2
31 22 4
31 30 6
32 0 7
32 1 3
32 2 7
32 4 4
32 5 2
32 6 2
32 13 3
32 14 3
32 15 2
32 16 4
32 19 5
32 21 5
32 26 4
32 28 5
32 29 5
32 31 2
33 1 7
33 2 1
33 4 5
33 5 2
33 6 6
33 7 6
33 10 3
33 11 1
33 12 2
33 13 7
33 14 4
33 15 2
33 16 3
33 17 7
33 18 2
33 24 3
33 25 2
33 26 7
33 27 3
33 28 2
33 29 2
33 30 3
34 0 2
34 1 1
34 2 4
34 3 5
34 4 3
34 9 2
34 10 1
34 11 5
34 13 2
34 14 7
34 15 5
34 18 4
34 19 7
34 20 2
34 21 1
34 23 2
34 25 1
34 27 6
34 28 5
34 30 4
35 0 2
35 2 6
35 6 5
35 7 7
35 8 7
35 9 7
35 10 2
35 12 5
35 14 7
35 17 1
35 19 6
35 20 7
35 23 6
35 27 5
35 28 6
35 29 4
35 30 5
35 31 6
35 33 4
36 4 1
36 5 4
36 10 5
36 12 6
36 13 6
36 16 6
36 17 1
36 21 7
36 23 2
36 24 1
36 25 2
36 27 1
36 28 5
36 30 1
36 35 3
37 0 5
37 1 6
37 2 2
37 5 4
37 8 6
37 10 1
37 14 5
37 17 7
37 18 3
37 19 4
37 21 6
37 23 2
37 24 1
37 25 1
37 27 3
37 28 7
37 30 3
37 31 2
37 34 7
37 35 3
38 1 3
38 4 5
38 5 5
38 6 5
38 8 5
38 9 1
38 11 5
38 14 1
38 15 5
38 17 1
38 21 1
38 23 6
38 29 5
38 32 3
38 36 4
38 37 4
39 1 1
39 3 2
39 4 7
39 5 4
39 9 7
39 11 2
39 12 5
39 13 3
39 14 7
39 16 6
39 20 2
39 25 3
39 26 7
39 27 2
39 29 6
39 34 6
39 35 6
39 37 7
